n_machines = 5;
n_resources = 6;
n_jobs = 74;
horizon = 4181;
LB = 1147;
n_jobs_per_resource = [10, 18, 19, 6, 3, 18];
duration = [71, 22, 31, 65, 19, 99, 49, 35, 96, 40, 66, 44, 55, 20, 46, 87, 1, 41, 88, 97, 98, 6, 54, 25, 67, 57, 32, 56, 21, 92, 29, 47, 95, 67, 99, 66, 72, 4, 6, 65, 62, 52, 87, 97, 83, 22, 81, 88, 30, 29, 42, 83, 54, 78, 55, 20, 80, 11, 66, 32, 98, 40, 60, 91, 81, 96, 12, 71, 55, 28, 98, 12, 94, 63]